1173.0 13192.0 3277.0 
1164.0 13193.0 3325.0 
1153.0 13269.0 3204.0 
1124.0 13755.0 3729.0 
1138.0 13342.0 3179.0 
1179.0 13083.0 2837.0 
1231.0 13174.0 2829.0 
1143.0 13279.0 3182.0 
1171.0 13206.0 3194.0 
1160.0 13220.0 3144.0 
1150.0 13318.0 3162.0 
1172.0 13155.0 3322.0 
1161.0 13224.0 2959.0 
1153.0 13393.0 3156.0 
1179.0 13083.0 2837.0 
1156.0 13393.0 3124.0 
1153.0 13269.0 3204.0 
1143.0 13279.0 3182.0 
1153.0 13269.0 3204.0 
1119.0 14124.0 4193.0 
1231.0 13174.0 2829.0 
1263.0 13120.0 2806.0 
1179.0 13083.0 2837.0 
1231.0 13174.0 2829.0 
1196.0 13179.0 2834.0 
1120.0 13976.0 4038.0 
1143.0 13327.0 3168.0 
